8
0 331 336 340 275 181 170 459 
331 0 493 349 311 481 271 383 
336 493 0 131 403 314 494 208 
340 349 131 0 239 238 414 360 
275 311 403 239 0 433 257 317 
181 481 314 238 433 0 286 172 
170 271 494 414 257 286 0 395 
459 383 208 360 317 172 395 0 
